12 66
1 2 5
1 3 4
1 4 2
1 5 5
1 6 4
1 7 5
1 8 3
1 9 2
1 10 5
1 11 1
1 12 3
2 3 4
2 4 5
2 5 1
2 6 5
2 7 2
2 8 2
2 9 5
2 10 3
2 11 2
2 12 3
3 4 4
3 5 1
3 6 4
3 7 3
3 8 4
3 9 5
3 10 2
3 11 4
3 12 5
4 5 5
4 6 1
4 7 4
4 8 3
4 9 5
4 10 3
4 11 4
4 12 4
5 6 5
5 7 1
5 8 2
5 9 1
5 10 1
5 11 3
5 12 3
6 7 5
6 8 2
6 9 4
6 10 5
6 11 3
6 12 3
7 8 1
7 9 3
7 10 5
7 11 1
7 12 4
8 9 3
8 10 4
8 11 1
8 12 1
9 10 4
9 11 4
9 12 3
10 11 2
10 12 4
11 12 4
